NAME : eil51.opt.tour
COMMENT : Optimal tour for eil51.tsp  (426)
TYPE : TOUR
DIMENSION : 51
TOUR_SECTION
36
35
20
3
28
31
26
8
22
1
32
11
38
5
49
9
50
16
2
29
21
34
30
10
39
33
45
15
44
37
17
4
42
19
40
41
13
25
14
18
47
12
46
51
27
48
6
24
23
7
43
-1
EOF
